# 3d Lennard-Jones gas

units           lj
atom_style      atomic
read_data       ./DATA/lj.init
include         setup.in

# Randomize

velocity        all create ${temp1} ${seed} dist gaussian

fix             1 all nvt temp ${temp1} ${temp2} ${tdamp}

dump            myDump all atom 1000 ./DATA/randomize

run             5000

minimize        1.0e-2 1.0e-3 100 1000

undump          myDump

unfix           1

# Equilibriate

fix             1 all nve
fix             2 all temp/csvr ${temp2} ${temp2} ${tdamp} ${seed}
fix             3 all plumed plumedfile plumed_biased.dat outfile plumed.log

dump            myDump all atom 10000 ./DATA/equilibriate

reset_timestep  0

run             1000000
